1995, 0, 0, 68, 0
1996, 0, 1, 78, 2
1997, 0, 2, 74, 1
1998, 0, 3, 54, 3
1999, 1, 0, 79, 0
2000, 1, 1, 67, 2
2001, 1, 2, 71, 1
2002, 1, 3, 39, 3
2003, 2, 0, 98, 2
2004, 2, 1, 55, 1
2005, 2, 2, 72, 0
2006, 2, 3, 50, 3
2007, 3, 0, 69, 3
2008, 3, 1, 71, 1
2009, 3, 2, 99, 0
2010, 3, 3, 83, 2
